LAMMPS (5 Oct 2016)
# GayBerne ellipsoids in LJ background fluid

units	     lj
atom_style   ellipsoid
dimension    2

lattice	     sq 0.02
Lattice spacing in x,y,z = 7.07107 7.07107 7.07107
region	     box block 0 20 0 20 -0.5 0.5
create_box   2 box
Created orthogonal box = (0 0 -3.53553) to (141.421 141.421 3.53553)
  2 by 2 by 1 MPI processor grid
create_atoms 1 box
Created 400 atoms

set	     group all type/fraction 2 0.1 95392
  45 settings made for type/fraction
set 	     type 1 mass 1.0
  355 settings made for mass
set 	     type 2 mass 1.5
  45 settings made for mass
set 	     type 1 shape 1 1 1
  355 settings made for shape
set 	     type 2 shape 3 1 1
  45 settings made for shape
set	     group all quat/random 18238
  400 settings made for quat/random

compute	     rot all temp/asphere
group	     spheroid type 1
355 atoms in group spheroid
variable     dof equal count(spheroid)+2
compute_modify rot extra ${dof}
compute_modify rot extra 357

velocity     all create 2.4 87287 loop geom

pair_style   gayberne 1.0 3.0 1.0 4.0
pair_coeff   1 1 3.0 1.0 1 1 1 1 1 1 2.5
pair_coeff   1 2 3.0 1.0 1 1 1 0 0 0
pair_coeff   2 2 1.0 1.0 1 1 0.2 0 0 0

neighbor     0.8 bin

thermo_style custom step c_rot epair etotal press vol
thermo	     100

timestep     0.002

compute	     q all property/atom quatw quati quatj quatk

#dump	     1 all custom 100 dump.ellipse.gayberne #	     id type x y z c_q[1] c_q[2] c_q[3] c_q[4]

#dump	     2 all image 100 image.*.jpg type type #	     zoom 1.6 center d 0.5 0.5 0.5
#dump_modify  2 pad 4 adiam 1 1.0 adiam 2 2.0

#dump	     3 all movie 100 movie.mpg type type #	     zoom 1.6 center d 0.5 0.5 0.5
#dump_modify  3 pad 4 adiam 1 1.0 adiam 2 2.0

fix	     1 all npt/asphere temp 2.0 2.0 0.1 iso 0.0 1.0 1.0 	       mtk no pchain 0 tchain 1
fix	     2 all enforce2d

compute_modify 1_temp extra ${dof}
compute_modify 1_temp extra 357

# equilibrate to shrink box around dilute system

run	     2000
Neighbor list info ...
  1 neighbor list requests
  update every 1 steps, delay 10 steps, check yes
  max neighbors/atom: 2000, page size: 100000
  master list distance cutoff = 4.8
  ghost atom cutoff = 4.8
  binsize = 2.4 -> bins = 59 59 3
Memory usage per processor = 4.16784 Mbytes
Step c_rot E_pair TotEng Press Volume 
       0    2.2718861            0        2.394      0.04788        20000 
     100    1.7443002            0    1.8380563   0.03576216    20558.672 
     200    2.2770454            0    2.3994366  0.046545139    20620.298 
     300    1.8573283            0    1.9571597   0.04240689    18460.771 
     400    2.1709732 -0.00046172705    2.2872012  0.066791266    13689.473 
     500    1.9712384 -0.014365021    2.0484832   0.12263116    8475.3548 
     600    2.0811163  -0.21654179    1.8340664   0.22433913    4685.3955 
     700    2.1578657  -0.68696192    1.3974517   0.60188995    2533.8873 
     800    1.8843124   -1.6343111    0.2143696     1.105687    1440.5961 
     900    2.1968489   -3.0749104  -0.92393949    3.2168763    924.62895 
    1000    1.4196808   -4.3944118    -2.972349    3.1895485    744.95136 
    1100    1.9354395   -4.9265904   -2.9959864    1.5434922    715.87574 
    1200    2.1063417   -4.5664569   -2.4467911    1.2012289    760.07454 
    1300     1.859493   -4.1043918   -2.2530918   0.35847277    846.54577 
    1400    2.1430322   -3.7414541   -1.6163368    0.7461639    928.96639 
    1500    1.9056885   -3.5118131   -1.5910333   0.35347839    1021.0387 
    1600    2.1297675   -3.2577617    -1.119554   0.73265236    1087.6271 
    1700    1.9341135   -3.2121534   -1.2832848   0.46406018    1140.8473 
    1800    2.0861201   -3.2382735   -1.1460071    0.6058924    1161.1051 
    1900    1.9976529   -3.2494581   -1.2698889   0.69257341    1151.4372 
    2000    1.9791754   -3.3850065   -1.3653244   0.88473343    1121.7026 
Loop time of 0.348825 on 4 procs for 2000 steps with 400 atoms

Performance: 990754.062 tau/day, 5733.530 timesteps/s
99.5% CPU use with 4 MPI tasks x no OpenMP threads

MPI task timing breakdown:
Section |  min time  |  avg time  |  max time  |%varavg| %total
---------------------------------------------------------------
Pair    | 0.18317    | 0.20567    | 0.22597    |   3.3 | 58.96
Neigh   | 0.0036285  | 0.0038322  | 0.0039773  |   0.2 |  1.10
Comm    | 0.043543   | 0.06339    | 0.085499   |   5.9 | 18.17
Output  | 0.00044894 | 0.00046825 | 0.00051665 |   0.1 |  0.13
Modify  | 0.069605   | 0.070677   | 0.071795   |   0.3 | 20.26
Other   |            | 0.004791   |            |       |  1.37

Nlocal:    100 ave 113 max 85 min
Histogram: 1 0 0 1 0 0 0 1 0 1
Nghost:    149.75 ave 160 max 141 min
Histogram: 1 1 0 0 0 0 1 0 0 1
Neighs:    757.75 ave 885 max 592 min
Histogram: 1 0 0 1 0 0 0 0 1 1

Total # of neighbors = 3031
Ave neighs/atom = 7.5775
Neighbor list builds = 140
Dangerous builds = 80

# run dynamics on dense system

unfix	     1
fix	     1 all nve/asphere

run	     2000
Memory usage per processor = 4.16867 Mbytes
Step c_rot E_pair TotEng Press Volume 
    2000    1.9791754   -3.3850065   -1.3653244   0.88473343    1121.7026 
    2100    2.0067383   -3.4164295    -1.402453   0.63163513    1121.7026 
    2200    2.0298976   -3.4415998   -1.4231421   0.91861985    1121.7026 
    2300    2.0418708   -3.4552617   -1.4277716   0.58834191    1121.7026 
    2400    2.0126625   -3.4242024   -1.3839097   0.80723766    1121.7026 
    2500    1.9403968   -3.3489494   -1.3995212   0.79492647    1121.7026 
    2600    2.0459318   -3.4600945   -1.4229599   0.69698729    1121.7026 
    2700    2.0032338   -3.4126541   -1.4297892   0.44208354    1121.7026 
    2800    1.9367789   -3.3456765   -1.4171038    0.6873665    1121.7026 
    2900    1.9870979   -3.3983434   -1.4218523   0.42398659    1121.7026 
    3000     1.965491    -3.376773   -1.3835208   0.66112051    1121.7026 
    3100    1.9307633   -3.3342121   -1.3895745   0.45224657    1121.7026 
    3200    1.8918453   -3.2949278   -1.4157216   0.56825582    1121.7026 
    3300    1.8824584   -3.2844031   -1.4066487   0.85795659    1121.7026 
    3400    1.8871451   -3.2878452   -1.4156691   0.91410213    1121.7026 
    3500    1.9297625   -3.3340904   -1.3901995    0.6754809    1121.7026 
    3600    1.8994197   -3.3009141   -1.3964162   0.58676937    1121.7026 
    3700    1.9181765   -3.3204193   -1.3956433   0.54632736    1121.7026 
    3800    1.9278078   -3.3300748   -1.3999307   0.48904879    1121.7026 
    3900     1.888321   -3.2896024   -1.3848249   0.49521159    1121.7026 
    4000    1.8372182   -3.2347372   -1.4091759   0.61895915    1121.7026 
Loop time of 0.380732 on 4 procs for 2000 steps with 400 atoms

Performance: 907726.114 tau/day, 5253.045 timesteps/s
98.7% CPU use with 4 MPI tasks x no OpenMP threads

MPI task timing breakdown:
Section |  min time  |  avg time  |  max time  |%varavg| %total
---------------------------------------------------------------
Pair    | 0.24119    | 0.25802    | 0.28318    |   3.0 | 67.77
Neigh   | 0.001538   | 0.0017161  | 0.0018811  |   0.3 |  0.45
Comm    | 0.055332   | 0.081399   | 0.098741   |   5.6 | 21.38
Output  | 0.0005157  | 0.00053984 | 0.00058794 |   0.1 |  0.14
Modify  | 0.026189   | 0.027282   | 0.029091   |   0.7 |  7.17
Other   |            | 0.01177    |            |       |  3.09

Nlocal:    100 ave 106 max 92 min
Histogram: 1 0 0 0 0 1 0 1 0 1
Nghost:    148 ave 152 max 145 min
Histogram: 1 1 0 0 0 1 0 0 0 1
Neighs:    760.25 ave 815 max 713 min
Histogram: 1 1 0 0 0 0 1 0 0 1

Total # of neighbors = 3041
Ave neighs/atom = 7.6025
Neighbor list builds = 46
Dangerous builds = 0

Please see the log.cite file for references relevant to this simulation

Total wall time: 0:00:00
